195 152 11 1 139 159 109 149 4 158 39 106 183 62 70 72 8 115 54 175 169 194 171 122 65 181 17 82 38 48 155 145 142 154 196 108 124 12 178 132 134 78 71 63 189 89 107 193 111 92 46 5 23 79 50 161 135 172 33 29 44 26 113 19 96 41 128 24 97 87 52 85 138 36 53 110 98 30 31 100 40 3 68 156 101 58 146 177 147 47 176 126 90 9 13 91 37 88 15 59 180 163 49 150 57 173 168 186 143 184 190 93 167 129 102 179 76 18 140 94 66 104 137 74 120 157 10 133 35 43 25 75 16 174 116 99 118 21 119 199 185 103 77 191 141 123 105 136 80 166 55 131 165 73 64 127 151 20 60 198 83 164 61 81 125 160 144 7 27 34 2 114 0 187 162 22 192 32 117 112 69 84 56 14 51 42 28 45 148 197 130 86 67 170 188 182 6 153 121 95 

